webassembly/ejemplos_results/folder8_json_61.txt
value = 8;
fgas = [1, 1, 1, 1, 1, 1, 1, 1];
fsize = [1, 1, 1, 1, 1, 1, 1, 1];
states = 
[|    in_0,   in_1, in_2, in_3, in_4,  '.', '.', '.', '.', '.', '.'
 |  's(0)',   in_0, in_2, in_3, in_4,  '.', '.', '.', '.', '.', '.'
 | local_0, 's(3)', in_0, in_2, in_3, in_4, '.', '.', '.', '.', '.'
 |  's(1)', 's(0)', in_0, in_2, in_3, in_4, '.', '.', '.', '.', '.'
 |  's(2)',   in_1, in_2, in_3, in_4,  '.', '.', '.', '.', '.', '.'
 |    in_2,   in_3, in_4,  '.',  '.',  '.', '.', '.', '.', '.', '.'
 |  's(3)',   in_3, in_4,  '.',  '.',  '.', '.', '.', '.', '.', '.'
 |    in_4,    '.',  '.',  '.',  '.',  '.', '.', '.', '.', '.', '.'
 |  's(4)',    '.',  '.',  '.',  '.',  '.', '.', '.', '.', '.', '.'
 |];
register_states = 
[| '.', '.', '.'
 | '.', '.', '.'
 | '.', '.', '.'
 | '.', '.', '.'
 | '.', '.', '.'
 | '.', '.', '.'
 | '.', '.', '.'
 | '.', '.', '.'
 | '.', '.', '.'
 |];
program = [O('i32.load8_s_0'), O('local.get_0'), O('i32.load8_s_2'), O('i32.add_0'), O('i32.store16_4'), O('i32.load16_s_5'), O('i32.store_6'), O('i32.load8_s_7')];
% time elapsed: 0.11 s
----------
==========
% time elapsed: 0.11 s
% [value > 7]
